cif2pos.py
1.0
     3.91270131     0.00000000     0.00000000
     0.00000000     3.91270131     0.00000000
     0.00000000     0.00000000     3.91270131
  Sr  Ti  O
  1  1  3
Direct
     0.00000000     0.00000000     0.00000000
     0.50000000     0.50000000     0.50000000
     0.50000000     0.00000000     0.50000000
     0.50000000     0.50000000     0.00000000
     0.00000000     0.50000000     0.50000000
